(set-info :origin "Horn problem converted to SMT-LIB2 using Eldarica (https://github.com/uuverifiers/eldarica)")
(set-logic HORN)
(declare-fun INV_MAIN_0 (Int Int Int Int Int Int Int Int Int Int) Bool)
(assert (forall ((A Int) (B Int) (C Int) (D Int) (E Int) (F Int) (G Int) (H Int) (I Int) (J Int))(=> (and (and (and (and (and (and (and (not (and (= E A) (or (= D B) (or (and (= J A) (= I B)) (and (= I D) (not (= J A))))))) (not (and (and (= I B) (not (= J E))) (or (= J A) (= D B))))) (not (and (and (= I B) (= D B)) (not (= J E))))) (not (and (= I D) (not (= J E))))) (not (>= C 0))) (= F A)) (= (- G C) (- 1))) (= H B)) (INV_MAIN_0 A B C D E F G H I J))))
(assert (forall ((A Int) (B Int) (C Int) (D Int) (E Int) (F Int) (G Int) (H Int) (I Int) (J Int))(=> (and (and (and (and (and (and (and (not (and (= E A) (or (= D B) (or (and (= J A) (= I B)) (and (= I D) (not (= J A))))))) (not (and (and (= I B) (not (= J E))) (or (= J A) (= D B))))) (not (and (and (= I B) (= D B)) (not (= J E))))) (not (and (= I D) (not (= J E))))) (not (<= C 0))) (= F A)) (= (- G C) (- 1))) (= H B)) (INV_MAIN_0 A B C D E F G H I J))))
(assert (forall ((A Int) (B Int) (C Int) (D Int) (E Int) (F Int) (G Int) (H Int) (I Int) (J Int) (K Int) (L Int) (M Int) (N Int) (O Int) (P Int) (Q Int) (R Int) (S Int) (T Int) (U Int) (V Int) (W Int) (X Int) (Y Int) (Z Int) (A1 Int) (B1 Int) (C1 Int) (D1 Int) (E1 Int) (F1 Int) (G1 Int) (H1 Int) (I1 Int) (J1 Int) (K1 Int) (L1 Int) (M1 Int) (N1 Int)) (not (and (and (and (and (and (and (and (and (and (and (and (and (and (and (and (and (and (and (and (and (and (and (and (and (and (and (and (and (and (and (and (and (and (and (and (and (and (and (and (INV_MAIN_0 A B C D E F G H I J) (INV_MAIN_0 K L M N O P Q R S T)) (INV_MAIN_0 U V W X Y Z A1 B1 C1 D1)) (INV_MAIN_0 E1 F1 G1 H1 I1 J1 K1 L1 M1 N1)) (not (and (= (- H1 F1) (- 1)) (not (= I1 E1))))) (not (and (= (- L1 H1) 1) (not (= N1 J1))))) (not (>= K1 0))) (not (= G1 1))) (not (= N1 I1))) (= M1 H1)) (= U E1)) (= V F1)) (= W G1)) (= X H1)) (= Y I1)) (= Z J1)) (= A1 K1)) (= B1 L1)) (= (- C1 L1) (- 1))) (= D1 J1)) (= K E1)) (= L F1)) (= M G1)) (= (- N F1) (- 1))) (= O E1)) (= P J1)) (= Q K1)) (= R L1)) (= S H1)) (= T N1)) (= A E1)) (= B F1)) (= C G1)) (= (- D F1) (- 1))) (= E E1)) (= F J1)) (= G K1)) (= H L1)) (= (- I L1) (- 1))) (= J J1)))))
(assert (forall ((A Int) (B Int) (C Int) (D Int) (E Int) (F Int) (G Int) (H Int) (I Int) (J Int)) (not (and (and (and (and (and (and (and (INV_MAIN_0 A B C D E F G H I J) (not (>= G 0))) (not (= C 1))) (not (= H B))) (= (- D B) (- 1))) (= E A)) (= (- I H) (- 1))) (= J F)))))
(assert (forall ((A Int) (B Int) (C Int) (D Int) (E Int) (F Int) (G Int) (H Int) (I Int) (J Int) (K Int) (L Int) (M Int) (N Int) (O Int) (P Int) (Q Int) (R Int) (S Int) (T Int) (U Int) (V Int) (W Int) (X Int) (Y Int) (Z Int) (A1 Int) (B1 Int) (C1 Int) (D1 Int) (E1 Int) (F1 Int) (G1 Int) (H1 Int) (I1 Int) (J1 Int) (K1 Int) (L1 Int) (M1 Int) (N1 Int)) (not (and (and (and (and (and (and (and (and (and (and (and (and (and (and (and (and (and (and (and (and (and (and (and (and (and (and (and (and (and (and (and (and (and (and (and (and (and (and (and (INV_MAIN_0 A B C D E F G H I J) (INV_MAIN_0 K L M N O P Q R S T)) (INV_MAIN_0 U V W X Y Z A1 B1 C1 D1)) (INV_MAIN_0 E1 F1 G1 H1 I1 J1 K1 L1 M1 N1)) (not (and (= (- H1 F1) (- 1)) (not (= I1 E1))))) (not (and (= (- L1 H1) 1) (not (= N1 J1))))) (not (<= K1 0))) (not (= G1 1))) (not (= N1 I1))) (= M1 H1)) (= U E1)) (= V F1)) (= W G1)) (= X H1)) (= Y I1)) (= Z J1)) (= A1 K1)) (= B1 L1)) (= (- C1 L1) (- 1))) (= D1 J1)) (= K E1)) (= L F1)) (= M G1)) (= (- N F1) (- 1))) (= O E1)) (= P J1)) (= Q K1)) (= R L1)) (= S H1)) (= T N1)) (= A E1)) (= B F1)) (= C G1)) (= (- D F1) (- 1))) (= E E1)) (= F J1)) (= G K1)) (= H L1)) (= (- I L1) (- 1))) (= J J1)))))
(assert (forall ((A Int) (B Int) (C Int) (D Int) (E Int) (F Int) (G Int) (H Int) (I Int) (J Int)) (not (and (and (and (and (and (and (and (INV_MAIN_0 A B C D E F G H I J) (not (<= G 0))) (not (= C 1))) (not (= H B))) (= (- D B) (- 1))) (= E A)) (= (- I H) (- 1))) (= J F)))))
(assert (forall ((A Int) (B Int) (C Int) (D Int) (E Int) (F Int) (G Int) (H Int) (I Int) (J Int) (K Int) (L Int) (M Int) (N Int) (O Int) (P Int) (Q Int) (R Int) (S Int) (T Int) (U Int) (V Int) (W Int) (X Int) (Y Int) (Z Int) (A1 Int) (B1 Int) (C1 Int) (D1 Int)) (not (and (and (and (and (and (and (and (and (and (and (and (and (and (and (and (and (and (and (and (and (and (and (and (and (INV_MAIN_0 A B C D E F G H I J) (INV_MAIN_0 K L M N O P Q R S T)) (INV_MAIN_0 U V W X Y Z A1 B1 C1 D1)) (not (and (= (- X V) (- 1)) (not (= K Y))))) (not (= V 1))) (not (= W 1))) (= L V)) (= M W)) (= N X)) (= O Y)) (= P Z)) (= Q 0)) (= R B1)) (= S C1)) (= T D1)) (= A K)) (= B V)) (= C W)) (= (- D V) (- 1))) (= E K)) (= F Z)) (= G 0)) (= H B1)) (= I C1)) (= J D1)))))
(assert (forall ((A Int) (B Int) (C Int) (D Int) (E Int) (F Int) (G Int) (H Int) (I Int) (J Int) (K Int) (L Int) (M Int) (N Int) (O Int) (P Int) (Q Int) (R Int) (S Int) (T Int)) (not (and (and (and (and (and (and (and (and (and (and (and (and (and (and (and (and (INV_MAIN_0 A B C D E F G H I J) (INV_MAIN_0 K L M N O P Q R S T)) (not (and (= (- N L) (- 1)) (not (= O K))))) (not (= M 1))) (not (= T O))) (= Q 0)) (= S N)) (= A K)) (= B L)) (= C M)) (= (- D L) (- 1))) (= E K)) (= F P)) (= G 0)) (= H R)) (= I N)) (= J T)))))
(assert (forall ((A Int) (B Int) (C Int) (D Int) (E Int) (F Int) (G Int) (H Int) (I Int) (J Int) (K Int) (L Int) (M Int) (N Int) (O Int) (P Int) (Q Int) (R Int) (S Int) (T Int) (U Int) (V Int) (W Int) (X Int) (Y Int) (Z Int) (A1 Int) (B1 Int) (C1 Int) (D1 Int)) (not (and (and (and (and (and (and (and (and (and (and (and (and (and (and (and (and (and (and (and (and (and (and (and (and (INV_MAIN_0 A B C D E F G H I J) (INV_MAIN_0 K L M N O P Q R S T)) (INV_MAIN_0 U V W X Y Z A1 B1 C1 D1)) (not (and (= (- C1 B1) (- 1)) (not (= P D1))))) (not (<= A1 0))) (not (= B1 1))) (= K U)) (= L V)) (= M 1)) (= N X)) (= O Y)) (= Q A1)) (= R B1)) (= S C1)) (= T D1)) (= A U)) (= B V)) (= C 1)) (= D X)) (= E Y)) (= F P)) (= G A1)) (= H B1)) (= (- I B1) (- 1))) (= J P)))))
(assert (forall ((A Int) (B Int) (C Int) (D Int) (E Int) (F Int) (G Int) (H Int) (I Int) (J Int) (K Int) (L Int) (M Int) (N Int) (O Int) (P Int) (Q Int) (R Int) (S Int) (T Int)) (not (and (and (and (and (and (and (and (and (and (and (and (and (and (and (and (and (INV_MAIN_0 A B C D E F G H I J) (INV_MAIN_0 K L M N O P Q R S T)) (not (and (= (- R N) 1) (not (= T P))))) (not (<= Q 0))) (not (= T O))) (= M 1)) (= S N)) (= A K)) (= B L)) (= C 1)) (= D N)) (= E O)) (= F P)) (= G Q)) (= H R)) (= (- I R) (- 1))) (= J P)))))
(assert (forall ((A Int) (B Int) (C Int) (D Int) (E Int) (F Int) (G Int) (H Int) (I Int) (J Int) (K Int) (L Int) (M Int) (N Int) (O Int) (P Int) (Q Int) (R Int) (S Int) (T Int) (U Int) (V Int) (W Int) (X Int) (Y Int) (Z Int) (A1 Int) (B1 Int) (C1 Int) (D1 Int)) (not (and (and (and (and (and (and (and (and (and (and (and (and (and (and (and (and (and (and (and (and (and (and (and (and (INV_MAIN_0 A B C D E F G H I J) (INV_MAIN_0 K L M N O P Q R S T)) (INV_MAIN_0 U V W X Y Z A1 B1 C1 D1)) (not (and (= (- C1 B1) (- 1)) (not (= P D1))))) (not (>= A1 0))) (not (= B1 1))) (= K U)) (= L V)) (= M 1)) (= N X)) (= O Y)) (= Q A1)) (= R B1)) (= S C1)) (= T D1)) (= A U)) (= B V)) (= C 1)) (= D X)) (= E Y)) (= F P)) (= G A1)) (= H B1)) (= (- I B1) (- 1))) (= J P)))))
(assert (forall ((A Int) (B Int) (C Int) (D Int) (E Int) (F Int) (G Int) (H Int) (I Int) (J Int) (K Int) (L Int) (M Int) (N Int) (O Int) (P Int) (Q Int) (R Int) (S Int) (T Int)) (not (and (and (and (and (and (and (and (and (and (and (and (and (and (and (and (and (INV_MAIN_0 A B C D E F G H I J) (INV_MAIN_0 K L M N O P Q R S T)) (not (and (= (- R N) 1) (not (= T P))))) (not (>= Q 0))) (not (= T O))) (= M 1)) (= S N)) (= A K)) (= B L)) (= C 1)) (= D N)) (= E O)) (= F P)) (= G Q)) (= H R)) (= (- I R) (- 1))) (= J P)))))
(assert (forall ((A Int) (B Int) (C Int) (D Int) (E Int) (F Int) (G Int) (H Int) (I Int) (J Int)) (not (and (and (and (and (INV_MAIN_0 A B C D E F G H I J) (not (= J E))) (= C 1)) (= G 0)) (= I D)))))
(assert (forall ((A Int) (B Int) (C Int) (D Int) (E Int) (F Int) (G Int) (H Int) (I Int) (J Int) (K Int) (L Int) (M Int) (N Int) (O Int) (P Int) (Q Int) (R Int) (S Int) (T Int) (U Int) (V Int) (W Int) (X Int) (Y Int) (Z Int) (A1 Int) (B1 Int) (C1 Int) (D1 Int) (E1 Int) (F1 Int) (G1 Int) (H1 Int) (I1 Int) (J1 Int) (K1 Int) (L1 Int) (M1 Int) (N1 Int) (O1 Int) (P1 Int) (Q1 Int) (R1 Int) (S1 Int) (T1 Int) (U1 Int) (V1 Int) (W1 Int) (X1 Int))(=> (and (and (and (and (and (and (and (and (and (and (and (and (and (and (and (and (and (and (and (and (and (and (and (and (and (and (and (and (and (and (and (and (and (and (and (and (and (and (and (and (and (and (and (and (and (and (and (INV_MAIN_0 K L M N O P Q R S T) (INV_MAIN_0 U V W X Y Z A1 B1 C1 D1)) (INV_MAIN_0 E1 F1 G1 H1 I1 J1 K1 L1 M1 N1)) (INV_MAIN_0 O1 P1 Q1 R1 S1 T1 U1 V1 W1 X1)) (not (and (= D B) (not (= Y E))))) (not (and (= I H) (not (= N1 J))))) (not (>= G (- 1)))) (not (= C 0))) (not (= N1 F))) (not (= Y A))) (= O1 A)) (= (- P1 B) 1)) (= (- Q1 C) 1)) (= R1 D)) (= S1 E)) (= T1 F)) (= (- U1 G) 1)) (= (- V1 H) 1)) (= W1 I)) (= X1 J)) (= E1 A)) (= (- F1 B) 1)) (= (- G1 C) 1)) (= H1 D)) (= I1 E)) (= J1 F)) (= (- K1 G) 1)) (= (- L1 H) 1)) (= M1 H)) (= U A)) (= (- V B) 1)) (= (- W C) 1)) (= X B)) (= Z F)) (= (- A1 G) 1)) (= (- B1 H) 1)) (= C1 I)) (= D1 J)) (= K A)) (= (- L B) 1)) (= (- M C) 1)) (= N B)) (= O Y)) (= P F)) (= (- Q G) 1)) (= (- R H) 1)) (= S H)) (= T N1)) (INV_MAIN_0 A B C D E F G H I J))))
(assert (forall ((A Int) (B Int) (C Int) (D Int) (E Int) (F Int) (G Int) (H Int) (I Int) (J Int) (K Int) (L Int) (M Int) (N Int) (O Int) (P Int) (Q Int) (R Int) (S Int) (T Int) (U Int) (V Int) (W Int) (X Int) (Y Int) (Z Int) (A1 Int) (B1 Int) (C1 Int) (D1 Int) (E1 Int) (F1 Int) (G1 Int) (H1 Int) (I1 Int) (J1 Int) (K1 Int) (L1 Int) (M1 Int) (N1 Int) (O1 Int) (P1 Int) (Q1 Int) (R1 Int) (S1 Int) (T1 Int) (U1 Int) (V1 Int) (W1 Int) (X1 Int))(=> (and (and (and (and (and (and (and (and (and (and (and (and (and (and (and (and (and (and (and (and (and (and (and (and (and (and (and (and (and (and (and (and (and (and (and (and (and (and (and (and (and (and (and (and (and (and (and (INV_MAIN_0 K L M N O P Q R S T) (INV_MAIN_0 U V W X Y Z A1 B1 C1 D1)) (INV_MAIN_0 E1 F1 G1 H1 I1 J1 K1 L1 M1 N1)) (INV_MAIN_0 O1 P1 Q1 R1 S1 T1 U1 V1 W1 X1)) (not (and (= D B) (not (= Y E))))) (not (and (= I H) (not (= N1 J))))) (not (<= G (- 1)))) (not (= C 0))) (not (= N1 F))) (not (= Y A))) (= O1 A)) (= (- P1 B) 1)) (= (- Q1 C) 1)) (= R1 D)) (= S1 E)) (= T1 F)) (= (- U1 G) 1)) (= (- V1 H) 1)) (= W1 I)) (= X1 J)) (= E1 A)) (= (- F1 B) 1)) (= (- G1 C) 1)) (= H1 D)) (= I1 E)) (= J1 F)) (= (- K1 G) 1)) (= (- L1 H) 1)) (= M1 H)) (= U A)) (= (- V B) 1)) (= (- W C) 1)) (= X B)) (= Z F)) (= (- A1 G) 1)) (= (- B1 H) 1)) (= C1 I)) (= D1 J)) (= K A)) (= (- L B) 1)) (= (- M C) 1)) (= N B)) (= O Y)) (= P F)) (= (- Q G) 1)) (= (- R H) 1)) (= S H)) (= T N1)) (INV_MAIN_0 A B C D E F G H I J))))
(assert (forall ((A Int) (B Int) (C Int) (D Int) (E Int) (F Int) (G Int) (H Int) (I Int) (J Int) (K Int) (L Int) (M Int) (N Int) (O Int) (P Int) (Q Int) (R Int) (S Int) (T Int) (U Int) (V Int) (W Int) (X Int) (Y Int) (Z Int) (A1 Int) (B1 Int) (C1 Int) (D1 Int) (E1 Int) (F1 Int) (G1 Int) (H1 Int) (I1 Int) (J1 Int) (K1 Int) (L1 Int) (M1 Int) (N1 Int) (O1 Int) (P1 Int) (Q1 Int) (R1 Int) (S1 Int) (T1 Int) (U1 Int) (V1 Int) (W1 Int) (X1 Int))(=> (and (and (and (and (and (and (and (and (and (and (and (and (and (and (and (and (and (and (and (and (and (and (and (and (and (and (and (and (and (and (and (and (and (and (and (and (and (and (and (and (and (and (and (and (and (and (INV_MAIN_0 K L M N O P Q R S T) (INV_MAIN_0 U V W X Y Z A1 B1 C1 D1)) (INV_MAIN_0 E1 F1 G1 H1 I1 J1 K1 L1 M1 N1)) (INV_MAIN_0 O1 P1 Q1 R1 S1 T1 U1 V1 W1 X1)) (not (and (= D B) (not (= Y E))))) (not (and (= (- I H) (- 1)) (not (= J F))))) (not (= C 0))) (not (= Y A))) (= O1 A)) (= (- P1 B) 1)) (= (- Q1 C) 1)) (= R1 D)) (= S1 E)) (= T1 F)) (= U1 G)) (= V1 H)) (= W1 I)) (= X1 J)) (= E1 A)) (= (- F1 B) 1)) (= (- G1 C) 1)) (= H1 D)) (= I1 E)) (= J1 F)) (= K1 G)) (= L1 H)) (= (- M1 H) (- 1))) (= N1 F)) (= U A)) (= (- V B) 1)) (= (- W C) 1)) (= X B)) (= Z F)) (= A1 G)) (= B1 H)) (= C1 I)) (= D1 J)) (= K A)) (= (- L B) 1)) (= (- M C) 1)) (= N B)) (= O Y)) (= P F)) (= Q G)) (= R H)) (= (- S H) (- 1))) (= T F)) (INV_MAIN_0 A B C D E F G H I J))))
(assert (forall ((A Int) (B Int) (C Int) (D Int) (E Int) (F Int) (G Int) (H Int) (I Int) (J Int) (K Int) (L Int) (M Int) (N Int) (O Int) (P Int) (Q Int) (R Int) (S Int) (T Int) (U Int) (V Int) (W Int) (X Int) (Y Int) (Z Int) (A1 Int) (B1 Int) (C1 Int) (D1 Int))(=> (and (and (and (and (and (and (and (and (and (and (and (and (and (and (and (and (and (and (and (and (and (and (and (and (INV_MAIN_0 K L M N O P Q R S T) (INV_MAIN_0 U V W X Y Z A1 B1 C1 D1)) (not (and (= D B) (not (= O E))))) (not (= C 0))) (not (= O A))) (= G 0)) (= U A)) (= (- V B) 1)) (= (- W C) 1)) (= X D)) (= Y E)) (= Z F)) (= A1 0)) (= B1 H)) (= C1 I)) (= D1 J)) (= K A)) (= (- L B) 1)) (= (- M C) 1)) (= N B)) (= P F)) (= Q 0)) (= R H)) (= S I)) (= T J)) (INV_MAIN_0 A B C D E F G H I J))))
(assert (forall ((A Int) (B Int) (C Int) (D Int) (E Int) (F Int) (G Int) (H Int) (I Int) (J Int) (K Int) (L Int) (M Int) (N Int) (O Int) (P Int) (Q Int) (R Int) (S Int) (T Int) (U Int) (V Int) (W Int) (X Int) (Y Int) (Z Int) (A1 Int) (B1 Int) (C1 Int) (D1 Int) (E1 Int) (F1 Int) (G1 Int) (H1 Int) (I1 Int) (J1 Int) (K1 Int) (L1 Int) (M1 Int) (N1 Int) (O1 Int) (P1 Int) (Q1 Int) (R1 Int) (S1 Int) (T1 Int) (U1 Int) (V1 Int) (W1 Int) (X1 Int))(=> (and (and (and (and (and (and (and (and (and (and (and (and (and (and (and (and (and (and (and (and (and (and (and (and (and (and (and (and (and (and (and (and (and (and (and (and (and (and (and (and (and (and (and (and (and (and (INV_MAIN_0 K L M N O P Q R S T) (INV_MAIN_0 U V W X Y Z A1 B1 C1 D1)) (INV_MAIN_0 E1 F1 G1 H1 I1 J1 K1 L1 M1 N1)) (INV_MAIN_0 O1 P1 Q1 R1 S1 T1 U1 V1 W1 X1)) (not (and (= (- D B) (- 1)) (not (= E A))))) (not (and (= I H) (not (= N1 J))))) (not (>= G (- 1)))) (not (= N1 F))) (= O1 A)) (= P1 B)) (= Q1 C)) (= R1 D)) (= S1 E)) (= T1 F)) (= (- U1 G) 1)) (= (- V1 H) 1)) (= W1 I)) (= X1 J)) (= E1 A)) (= F1 B)) (= G1 C)) (= H1 D)) (= I1 E)) (= J1 F)) (= (- K1 G) 1)) (= (- L1 H) 1)) (= M1 H)) (= U A)) (= V B)) (= W C)) (= (- X B) (- 1))) (= Y A)) (= Z F)) (= (- A1 G) 1)) (= (- B1 H) 1)) (= C1 I)) (= D1 J)) (= K A)) (= L B)) (= M C)) (= (- N B) (- 1))) (= O A)) (= P F)) (= (- Q G) 1)) (= (- R H) 1)) (= S H)) (= T N1)) (INV_MAIN_0 A B C D E F G H I J))))
(assert (forall ((A Int) (B Int) (C Int) (D Int) (E Int) (F Int) (G Int) (H Int) (I Int) (J Int) (K Int) (L Int) (M Int) (N Int) (O Int) (P Int) (Q Int) (R Int) (S Int) (T Int) (U Int) (V Int) (W Int) (X Int) (Y Int) (Z Int) (A1 Int) (B1 Int) (C1 Int) (D1 Int))(=> (and (and (and (and (and (and (and (and (and (and (and (and (and (and (and (and (and (and (and (and (and (and (and (and (INV_MAIN_0 K L M N O P Q R S T) (INV_MAIN_0 U V W X Y Z A1 B1 C1 D1)) (not (and (= I H) (not (= T J))))) (not (>= G (- 1)))) (not (= T F))) (= C 1)) (= U A)) (= V B)) (= W 1)) (= X D)) (= Y E)) (= Z F)) (= (- A1 G) 1)) (= (- B1 H) 1)) (= C1 I)) (= D1 J)) (= K A)) (= L B)) (= M 1)) (= N D)) (= O E)) (= P F)) (= (- Q G) 1)) (= (- R H) 1)) (= S H)) (INV_MAIN_0 A B C D E F G H I J))))
(assert (forall ((A Int) (B Int) (C Int) (D Int) (E Int) (F Int) (G Int) (H Int) (I Int) (J Int) (K Int) (L Int) (M Int) (N Int) (O Int) (P Int) (Q Int) (R Int) (S Int) (T Int) (U Int) (V Int) (W Int) (X Int) (Y Int) (Z Int) (A1 Int) (B1 Int) (C1 Int) (D1 Int) (E1 Int) (F1 Int) (G1 Int) (H1 Int) (I1 Int) (J1 Int) (K1 Int) (L1 Int) (M1 Int) (N1 Int) (O1 Int) (P1 Int) (Q1 Int) (R1 Int) (S1 Int) (T1 Int) (U1 Int) (V1 Int) (W1 Int) (X1 Int))(=> (and (and (and (and (and (and (and (and (and (and (and (and (and (and (and (and (and (and (and (and (and (and (and (and (and (and (and (and (and (and (and (and (and (and (and (and (and (and (and (and (and (and (and (and (and (and (INV_MAIN_0 K L M N O P Q R S T) (INV_MAIN_0 U V W X Y Z A1 B1 C1 D1)) (INV_MAIN_0 E1 F1 G1 H1 I1 J1 K1 L1 M1 N1)) (INV_MAIN_0 O1 P1 Q1 R1 S1 T1 U1 V1 W1 X1)) (not (and (= (- D B) (- 1)) (not (= E A))))) (not (and (= I H) (not (= N1 J))))) (not (<= G (- 1)))) (not (= N1 F))) (= O1 A)) (= P1 B)) (= Q1 C)) (= R1 D)) (= S1 E)) (= T1 F)) (= (- U1 G) 1)) (= (- V1 H) 1)) (= W1 I)) (= X1 J)) (= E1 A)) (= F1 B)) (= G1 C)) (= H1 D)) (= I1 E)) (= J1 F)) (= (- K1 G) 1)) (= (- L1 H) 1)) (= M1 H)) (= U A)) (= V B)) (= W C)) (= (- X B) (- 1))) (= Y A)) (= Z F)) (= (- A1 G) 1)) (= (- B1 H) 1)) (= C1 I)) (= D1 J)) (= K A)) (= L B)) (= M C)) (= (- N B) (- 1))) (= O A)) (= P F)) (= (- Q G) 1)) (= (- R H) 1)) (= S H)) (= T N1)) (INV_MAIN_0 A B C D E F G H I J))))
(assert (forall ((A Int) (B Int) (C Int) (D Int) (E Int) (F Int) (G Int) (H Int) (I Int) (J Int) (K Int) (L Int) (M Int) (N Int) (O Int) (P Int) (Q Int) (R Int) (S Int) (T Int) (U Int) (V Int) (W Int) (X Int) (Y Int) (Z Int) (A1 Int) (B1 Int) (C1 Int) (D1 Int))(=> (and (and (and (and (and (and (and (and (and (and (and (and (and (and (and (and (and (and (and (and (and (and (and (and (INV_MAIN_0 K L M N O P Q R S T) (INV_MAIN_0 U V W X Y Z A1 B1 C1 D1)) (not (and (= I H) (not (= T J))))) (not (<= G (- 1)))) (not (= T F))) (= C 1)) (= U A)) (= V B)) (= W 1)) (= X D)) (= Y E)) (= Z F)) (= (- A1 G) 1)) (= (- B1 H) 1)) (= C1 I)) (= D1 J)) (= K A)) (= L B)) (= M 1)) (= N D)) (= O E)) (= P F)) (= (- Q G) 1)) (= (- R H) 1)) (= S H)) (INV_MAIN_0 A B C D E F G H I J))))
(check-sat)
